# Solution for model r10_t36_m7_1 Batch Number: 2
# Finished Task: 36 / 36
# Makespan: 687.0, Total Distance: 307.0, Total Time: 13.8459
# R O S F Batch
0 0 29 0.0 0.0 -1
1 1 32 0.0 0.0 -1
2 2 27 0.0 0.0 -1
3 3 19 0.0 0.0 -1
4 4 14 0.0 0.0 -1
5 5 31 0.0 0.0 -1
6 6 23 0.0 0.0 -1
7 7 44 0.0 0.0 -1
8 8 24 0.0 0.0 -1
9 9 18 0.0 0.0 -1
10 5 33 492.0 530.0 0
11 2 -1 585.0 612.0 1
12 2 45 392.0 426.0 0
13 5 15 407.0 435.0 0
14 4 25 427.0 464.0 0
15 5 10 458.0 483.0 0
16 1 38 472.0 499.0 0
17 7 42 630.0 650.0 1
18 9 36 142.0 162.0 0
19 3 35 387.0 420.0 0
20 9 37 628.0 652.0 1
21 9 20 567.0 598.0 0
22 9 21 513.0 550.0 0
23 6 39 517.0 550.0 0
24 8 28 579.0 605.0 0
25 4 -1 471.0 510.0 1
26 2 34 502.0 528.0 1
27 2 12 351.0 381.0 0
28 8 -1 656.0 687.0 1
29 0 -1 519.0 544.0 0
30 3 -1 650.0 681.0 1
31 5 13 363.0 389.0 0
32 1 16 423.0 460.0 0
33 5 40 530.0 562.0 0
34 2 11 542.0 577.0 1
35 3 43 432.0 471.0 0
36 9 22 350.0 377.0 0
37 9 -1 652.0 687.0 1
38 1 -1 637.0 669.0 1
39 6 -1 550.0 584.0 1
40 5 -1 562.0 601.0 1
41 3 30 622.0 650.0 1
42 7 -1 658.0 687.0 1
43 3 41 579.0 610.0 1
44 7 17 583.0 605.0 0
45 2 26 469.0 492.0 1
